(declare-var FH0 (Array Int Int))
(declare-var FH1 (Array Int Int))
(declare-var FH2 (Array Int Int))
(declare-var FH3 Int)
(declare-var FH4 Int)
(declare-var FH5 Int)
(declare-var FH6 (Array Int Int))
(declare-var FH7 (Array Int Int))
(declare-var FH8 (Array Int Int))
(declare-var FH9 Int)
(declare-var FH10 Int)
(declare-var FH11 Int)
(declare-var FH6P (Array Int Int))
(declare-var FH7P (Array Int Int))
(declare-var FH8P (Array Int Int))
(declare-var FH9P Int)
(declare-var FH10P Int)
(declare-var FH11P Int)
(declare-var i1 Int)
(declare-rel inv1 ((Array Int  Int ) (Array Int  Int ) (Array Int  Int ) Int Int Int )) 
(declare-rel inv2 ((Array Int  Int ) (Array Int  Int ) (Array Int  Int ) Int Int Int )) 
(declare-rel fail())

(rule (=> (and (= 0 FH9P) (= FH0 FH6P) (= FH5 FH11P) (> FH5 0) (= FH2 FH8P) (= FH4 FH10P) (= FH1 FH7P) (or (exists ((i1 Int)) (and (<= 0 i1) (>= i1 0) (< i1 FH5) (or (< (+ (select FH0 i1) (- FH4)) 0) (< (select FH2 i1) 0)))) (exists ((i1 Int)) (and (<= 0 i1) (>= i1 0) (< i1 FH5) (or (< (+ (select FH0 i1) (- FH4)) 0) (< (select FH1 i1) 0)))))) (inv2 FH6P FH7P FH8P FH9P FH10P FH11P)))
(rule (=> (and (= FH10 FH10P) (= FH11 FH11P) (< FH9 FH11) (= (store FH6 FH9 (select FH6 FH9)) FH6P) (= (store FH8 FH9 (select FH8 FH9)) FH8P) (= FH9P (+ FH9 1)) (= (store FH7 FH9 (+ (select FH6 FH9) (- FH10))) FH7P) (inv2 FH6 FH7 FH8 FH9 FH10 FH11)) (inv2 FH6P FH7P FH8P FH9P FH10P FH11P)))
(rule (=> (and (= FH10 FH10P) (= FH11 FH11P) (< FH9 FH11) (= (store FH6 FH9 (select FH6 FH9)) FH6P) (= FH9P (+ FH9 1)) (= (store FH7 FH9 (select FH7 FH9)) FH7P) (= (store FH8 FH9 (+ (select FH6 FH9) (- FH10))) FH8P) (inv2 FH6 FH7 FH8 FH9 FH10 FH11)) (inv2 FH6P FH7P FH8P FH9P FH10P FH11P)))
(rule (=> (and (>= FH9 FH11) (inv2 FH6 FH7 FH8 FH9 FH10 FH11) (forall ((i1 Int)) (or (> 0 i1) (and (>= (select FH8 i1) 0) (>= (select FH7 i1) 0)) (>= i1 FH11)))) fail))
(query fail)

